problem_generation/data/GISP/train/er_n=64_m=1241_p=0.60_SET2_setparam=100.00_alpha=0.50_464.lp
maximize
OBJ:100x0 + 100x1 + 100x2 + 100x3 + 100x4 + 100x5 + 100x6 + 100x7 + 100x8 + 100x9 + 100x10 + 100x11 + 100x12 + 100x13 + 100x14 + 100x15 + 100x16 + 100x17 + 100x18 + 100x19 + 100x20 + 100x21 + 100x22 + 100x23 + 100x24 + 100x25 + 100x26 + 100x27 + 100x28 + 100x29 + 100x30 + 100x31 + 100x32 + 100x33 + 100x34 + 100x35 + 100x36 + 100x37 + 100x38 + 100x39 + 100x40 + 100x41 + 100x42 + 100x43 + 100x44 + 100x45 + 100x46 + 100x47 + 100x48 + 100x49 + 100x50 + 100x51 + 100x52 + 100x53 + 100x54 + 100x55 + 100x56 + 100x57 + 100x58 + 100x59 + 100x60 + 100x61 + 100x62 + 100x63 - y7_17 - y47_53 - y18_26 - y17_58 - y7_35 - y8_9 - y9_63 - y8_18 - y48_54 - y0_23 - y21_55 - y10_36 - y2_32 - y25_34 - y25_43 - y3_6 - y2_50 - y25_52 - y43_60 - y15_16 - y7_12 - y47_48 - y15_25 - y18_21 - y28_53 - y9_58 - y6_34 - y29_36 - y6_43 - y29_45 - y48_58 - y29_54 - y21_50 - y6_61 - y29_63 - y40_63 - y10_22 - y33_42 - y44_51 - y25_47 - y3_10 - y10_58 - y51_59 - y22_32 - y13_60 - y14_37 - y16_56 - y36_43 - y7_16 - y36_52 - y17_48 - y59_63 - y9_44 - y29_31 - y9_62 - y21_27 - y29_40 - y48_53 - y6_47 - y40_49 - y10_17 - y39_62 - y54_60 - y25_33 - y10_44 - y25_42 - y3_5 - y32_50 - y43_59 - y1_53 - y14_32 - y1_62 - y17_25 - y7_11 - y36_47 - y47_56 - y9_39 - y5_50 - y6_15 - y9_57 - y6_33 - y21_31 - y10_12 - y2_8 - y10_21 - y31_53 - y20_62 - y10_39 - y23_58 - y13_32 - y24_32 - y32_45 - y43_45 - y13_41 - y35_41 - y3_18 - y1_48 - y13_50 - y32_63 - y35_50 - y1_57 - y35_59 - y5_27 - y17_29 - y47_51 - y50_53 - y21_26 - y6_37 - y21_35 - y20_39 - y10_16 - y39_52 - y2_12 - y10_25 - y39_61 - y54_59 - y23_53 - y12_62 - y3_4 - y4_58 - y32_40 - y35_36 - y35_45 - y43_58 - y35_63 - y16_59 - y5_22 - y17_42 - y58_61 - y8_51 - y21_30 - y11_56 - y31_34 - y2_16 - y20_52 - y31_52 - y23_48 - y20_61 - y31_61 - y32_35 - y13_31 - y24_31 - y4_62 - y32_44 - y13_40 - y24_40 - y35_40 - y24_49 - y35_49 - y5_17 - y17_19 - y46_55 - y9_15 - y5_26 - y5_35 - y17_37 - y28_37 - y5_44 - y6_9 - y27_50 - y19_46 - y50_61 - y8_55 - y20_29 - y39_42 - y23_25 - y20_38 - y12_34 - y2_11 - y4_30 - y31_47 - y23_43 - y23_52 - y34_58 - y24_44 - y9_10 - y38_46 - y57_59 - y9_19 - y9_28 - y15_62 - y5_39 - y7_58 - y8_32 - y19_41 - y50_56 - y30_50 - y42_52 - y11_46 - y8_59 - y19_59 - y30_59 - y0_55 - y11_55 - y12_20 - y12_29 - y1_19 - y53_57 - y34_53 - y1_28 - y13_30 - y16_26 - y22_60 - y1_37 - y34_62 - y1_46 - y5_7 - y57_63 - y26_57 - y7_53 - y19_27 - y8_36 - y19_36 - y50_51 - y8_45 - y19_45 - y30_45 - y11_41 - y42_47 - y19_54 - y0_50 - y30_63 - y11_59 - y12_24 - y31_37 - y23_33 - y4_29 - y12_42 - y1_5 - y23_42 - y34_39 - y4_47 - y34_48 - y1_23 - y37_53 - y5_11 - y46_49 - y46_58 - y7_39 - y18_39 - y7_48 - y26_61 - y49_63 - y7_57 - y8_22 - y27_35 - y11_18 - y19_31 - y11_27 - y30_40 - y11_36 - y8_49 - y0_45 - y20_23 - y4_6 - y0_54 - y20_32 - y4_15 - y33_51 - y33_60 - y12_37 - y23_37 - y25_56 - y4_33 - y1_9 - y34_43 - y45_52 - y37_48 - y45_61 - y18_25 - y38_40 - y26_47 - y0_4 - y27_30 - y27_39 - y19_35 - y19_44 - y30_44 - y12_14 - y41_59 - y4_28 - y1_4 - y25_60 - y3_32 - y45_56 - y37_61 - y7_20 - y18_20 - y26_33 - y15_42 - y18_38 - y15_51 - y26_51 - y7_56 - y8_21 - y11_17 - y6_60 - y29_62 - y21_58 - y33_41 - y41_54 - y52_54 - y44_50 - y41_63 - y14_36 - y3_45 - y37_47 - y14_54 - y37_56 - y15_28 - y7_24 - y18_24 - y36_60 - y29_39 - y29_48 - y40_48 - y6_55 - y21_53 - y33_36 - y25_32 - y10_43 - y52_58 - y25_41 - y33_54 - y44_54 - y51_62 - y2_57 - y14_22 - y22_35 - y22_44 - y37_42 - y7_10 - y36_46 - y7_19 - y17_51 - y18_28 - y6_41 - y0_16 - y29_52 - y41_44 - y2_25 - y25_27 - y10_38 - y25_45 - y25_54 - y22_30 - y13_58 - y16_63 - y36_41 - y36_50 - y28_46 - y36_59 - y47_59 - y59_61 - y17_55 - y29_38 - y29_47 - y21_43 - y6_54 - y54_58 - y10_33 - y33_35 - y25_31 - y33_44 - y2_38 - y2_47 - y43_48 - y22_25 - y32_57 - y24_53 - y14_30 - y1_60 - y35_62 - y17_32 - y7_9 - y47_54 - y5_48 - y36_63 - y6_31 - y6_40 - y29_42 - y40_42 - y2_6 - y2_24 - y10_37 - y2_33 - y25_35 - y2_42 - y51_56 - y24_39 - y35_48 - y3_25 - y16_44 - y32_61 - y24_57 - y16_53 - y16_62 - y5_34 - y9_32 - y17_45 - y47_58 - y6_17 - y21_24 - y21_42 - y54_57 - y10_32 - y12_60 - y32_38 - y3_11 - y43_47 - y13_43 - y24_43 - y32_56 - y35_43 - y24_61 - y16_57 - y5_20 - y17_22 - y9_18 - y36_44 - y28_40 - y9_45 - y58_59 - y27_62 - y6_39 - y8_58 - y0_63 - y39_45 - y20_41 - y2_14 - y23_46 - y31_59 - y12_55 - y23_55 - y16_25 - y24_38 - y13_47 - y16_43 - y35_56 - y5_15 - y1_63 - y9_13 - y16_61 - y17_26 - y46_62 - y28_35 - y6_7 - y6_25 - y21_23 - y8_53 - y0_58 - y23_41 - y31_54 - y54_56 - y12_50 - y13_15 - y23_50 - y4_46 - y23_59 - y1_31 - y1_40 - y35_42 - y16_47 - y5_10 - y46_48 - y46_57 - y9_17 - y38_53 - y17_30 - y28_30 - y49_53 - y9_26 - y26_60 - y5_37 - y9_35 - y27_34 - y8_39 - y8_48 - y30_48 - y42_50 - y50_63 - y42_59 - y11_53 - y11_62 - y39_44 - y31_40 - y20_49 - y12_45 - y23_45 - y31_58 - y4_41 - y12_54 - y16_24 - y13_37 - y16_42 - y5_14 - y38_48 - y57_61 - y5_32 - y7_51 - y8_34 - y8_43 - y30_52 - y0_48 - y11_48 - y8_61 - y20_26 - y0_57 - y4_18 - y12_31 - y12_40 - y12_49 - y45_46 - y53_59 - y34_55 - y45_55 - y37_51 - y1_39 - y3_58 - y5_18 - y26_50 - y7_46 - y26_59 - y18_55 - y19_29 - y27_42 - y8_38 - y19_47 - y30_47 - y42_49 - y19_56 - y20_21 - y52_53 - y20_30 - y4_22 - y44_58 - y12_35 - y1_7 - y25_63 - y16_23 - y34_59 - y56_59 - y37_55 - y14_62 - y15_36 - y5_13 - y7_32 - y15_45 - y15_54 - y26_54 - y49_56 - y8_24 - y48_60 - y27_37 - y8_33 - y30_33 - y27_46 - y0_29 - y8_42 - y11_38 - y20_25 - y33_53 - y4_26 - y34_36 - y1_11 - y34_45 - y53_58 - y22_52 - y3_48 - y37_50 - y56_63 - y37_59 - y38_42 - y27_32 - y0_15 - y18_63 - y19_28 - y8_37 - y19_37 - y30_37 - y0_42 - y41_52 - y33_57 - y25_53 - y25_62 - y34_49 - y56_58 - y37_54 - y18_22 - y15_35 - y7_31 - y15_44 - y7_40 - y18_40 - y0_1 - y40_46 - y6_53 - y29_55 - y21_60 - y33_34 - y33_52 - y2_46 - y33_61 - y44_61 - y14_20 - y34_35 - y34_44 - y14_38 - y37_49
 Subject to
C1: x0+x1-y0_1 <=1 
C2: x0+x2 <=1 
C3: x0+x4-y0_4 <=1 
C4: x0+x5 <=1 
C5: x0+x6 <=1 
C6: x0+x7 <=1 
C7: x0+x10 <=1 
C8: x0+x14 <=1 
C9: x0+x15-y0_15 <=1 
C10: x0+x16-y0_16 <=1 
C11: x0+x17 <=1 
C12: x0+x20 <=1 
C13: x0+x21 <=1 
C14: x0+x22 <=1 
C15: x0+x23-y0_23 <=1 
C16: x0+x24 <=1 
C17: x0+x27 <=1 
C18: x0+x28 <=1 
C19: x0+x29-y0_29 <=1 
C20: x0+x31 <=1 
C21: x0+x34 <=1 
C22: x0+x35 <=1 
C23: x0+x38 <=1 
C24: x0+x40 <=1 
C25: x0+x41 <=1 
C26: x0+x42-y0_42 <=1 
C27: x0+x44 <=1 
C28: x0+x45-y0_45 <=1 
C29: x0+x47 <=1 
C30: x0+x48-y0_48 <=1 
C31: x0+x49 <=1 
C32: x0+x50-y0_50 <=1 
C33: x0+x53 <=1 
C34: x0+x54-y0_54 <=1 
C35: x0+x55-y0_55 <=1 
C36: x0+x56 <=1 
C37: x0+x57-y0_57 <=1 
C38: x0+x58-y0_58 <=1 
C39: x0+x59 <=1 
C40: x0+x61 <=1 
C41: x0+x63-y0_63 <=1 
C42: x1+x2 <=1 
C43: x1+x4-y1_4 <=1 
C44: x1+x5-y1_5 <=1 
C45: x1+x7-y1_7 <=1 
C46: x1+x9-y1_9 <=1 
C47: x1+x11-y1_11 <=1 
C48: x1+x13 <=1 
C49: x1+x17 <=1 
C50: x1+x18 <=1 
C51: x1+x19-y1_19 <=1 
C52: x1+x20 <=1 
C53: x1+x23-y1_23 <=1 
C54: x1+x26 <=1 
C55: x1+x28-y1_28 <=1 
C56: x1+x29 <=1 
C57: x1+x31-y1_31 <=1 
C58: x1+x33 <=1 
C59: x1+x34 <=1 
C60: x1+x35 <=1 
C61: x1+x36 <=1 
C62: x1+x37-y1_37 <=1 
C63: x1+x39-y1_39 <=1 
C64: x1+x40-y1_40 <=1 
C65: x1+x43 <=1 
C66: x1+x45 <=1 
C67: x1+x46-y1_46 <=1 
C68: x1+x48-y1_48 <=1 
C69: x1+x50 <=1 
C70: x1+x51 <=1 
C71: x1+x52 <=1 
C72: x1+x53-y1_53 <=1 
C73: x1+x57-y1_57 <=1 
C74: x1+x58 <=1 
C75: x1+x59 <=1 
C76: x1+x60-y1_60 <=1 
C77: x1+x62-y1_62 <=1 
C78: x1+x63-y1_63 <=1 
C79: x2+x5 <=1 
C80: x2+x6-y2_6 <=1 
C81: x2+x8-y2_8 <=1 
C82: x2+x9 <=1 
C83: x2+x10 <=1 
C84: x2+x11-y2_11 <=1 
C85: x2+x12-y2_12 <=1 
C86: x2+x13 <=1 
C87: x2+x14-y2_14 <=1 
C88: x2+x16-y2_16 <=1 
C89: x2+x18 <=1 
C90: x2+x22 <=1 
C91: x2+x23 <=1 
C92: x2+x24-y2_24 <=1 
C93: x2+x25-y2_25 <=1 
C94: x2+x32-y2_32 <=1 
C95: x2+x33-y2_33 <=1 
C96: x2+x38-y2_38 <=1 
C97: x2+x39 <=1 
C98: x2+x40 <=1 
C99: x2+x42-y2_42 <=1 
C100: x2+x44 <=1 
C101: x2+x45 <=1 
C102: x2+x46-y2_46 <=1 
C103: x2+x47-y2_47 <=1 
C104: x2+x48 <=1 
C105: x2+x49 <=1 
C106: x2+x50-y2_50 <=1 
C107: x2+x51 <=1 
C108: x2+x53 <=1 
C109: x2+x54 <=1 
C110: x2+x57-y2_57 <=1 
C111: x2+x59 <=1 
C112: x2+x62 <=1 
C113: x3+x4-y3_4 <=1 
C114: x3+x5-y3_5 <=1 
C115: x3+x6-y3_6 <=1 
C116: x3+x7 <=1 
C117: x3+x10-y3_10 <=1 
C118: x3+x11-y3_11 <=1 
C119: x3+x12 <=1 
C120: x3+x13 <=1 
C121: x3+x14 <=1 
C122: x3+x15 <=1 
C123: x3+x16 <=1 
C124: x3+x18-y3_18 <=1 
C125: x3+x24 <=1 
C126: x3+x25-y3_25 <=1 
C127: x3+x26 <=1 
C128: x3+x27 <=1 
C129: x3+x28 <=1 
C130: x3+x29 <=1 
C131: x3+x31 <=1 
C132: x3+x32-y3_32 <=1 
C133: x3+x33 <=1 
C134: x3+x35 <=1 
C135: x3+x36 <=1 
C136: x3+x38 <=1 
C137: x3+x39 <=1 
C138: x3+x42 <=1 
C139: x3+x45-y3_45 <=1 
C140: x3+x47 <=1 
C141: x3+x48-y3_48 <=1 
C142: x3+x49 <=1 
C143: x3+x53 <=1 
C144: x3+x56 <=1 
C145: x3+x58-y3_58 <=1 
C146: x3+x59 <=1 
C147: x3+x62 <=1 
C148: x4+x6-y4_6 <=1 
C149: x4+x10 <=1 
C150: x4+x14 <=1 
C151: x4+x15-y4_15 <=1 
C152: x4+x16 <=1 
C153: x4+x18-y4_18 <=1 
C154: x4+x22-y4_22 <=1 
C155: x4+x24 <=1 
C156: x4+x25 <=1 
C157: x4+x26-y4_26 <=1 
C158: x4+x27 <=1 
C159: x4+x28-y4_28 <=1 
C160: x4+x29-y4_29 <=1 
C161: x4+x30-y4_30 <=1 
C162: x4+x31 <=1 
C163: x4+x32 <=1 
C164: x4+x33-y4_33 <=1 
C165: x4+x34 <=1 
C166: x4+x35 <=1 
C167: x4+x36 <=1 
C168: x4+x40 <=1 
C169: x4+x41-y4_41 <=1 
C170: x4+x42 <=1 
C171: x4+x44 <=1 
C172: x4+x45 <=1 
C173: x4+x46-y4_46 <=1 
C174: x4+x47-y4_47 <=1 
C175: x4+x48 <=1 
C176: x4+x49 <=1 
C177: x4+x50 <=1 
C178: x4+x53 <=1 
C179: x4+x54 <=1 
C180: x4+x58-y4_58 <=1 
C181: x4+x59 <=1 
C182: x4+x62-y4_62 <=1 
C183: x5+x6 <=1 
C184: x5+x7-y5_7 <=1 
C185: x5+x8 <=1 
C186: x5+x9 <=1 
C187: x5+x10-y5_10 <=1 
C188: x5+x11-y5_11 <=1 
C189: x5+x13-y5_13 <=1 
C190: x5+x14-y5_14 <=1 
C191: x5+x15-y5_15 <=1 
C192: x5+x16 <=1 
C193: x5+x17-y5_17 <=1 
C194: x5+x18-y5_18 <=1 
C195: x5+x20-y5_20 <=1 
C196: x5+x21 <=1 
C197: x5+x22-y5_22 <=1 
C198: x5+x24 <=1 
C199: x5+x25 <=1 
C200: x5+x26-y5_26 <=1 
C201: x5+x27-y5_27 <=1 
C202: x5+x29 <=1 
C203: x5+x31 <=1 
C204: x5+x32-y5_32 <=1 
C205: x5+x34-y5_34 <=1 
C206: x5+x35-y5_35 <=1 
C207: x5+x36 <=1 
C208: x5+x37-y5_37 <=1 
C209: x5+x39-y5_39 <=1 
C210: x5+x40 <=1 
C211: x5+x42 <=1 
C212: x5+x43 <=1 
C213: x5+x44-y5_44 <=1 
C214: x5+x48-y5_48 <=1 
C215: x5+x50-y5_50 <=1 
C216: x5+x52 <=1 
C217: x5+x53 <=1 
C218: x5+x54 <=1 
C219: x5+x56 <=1 
C220: x5+x57 <=1 
C221: x5+x60 <=1 
C222: x5+x62 <=1 
C223: x6+x7-y6_7 <=1 
C224: x6+x8 <=1 
C225: x6+x9-y6_9 <=1 
C226: x6+x12 <=1 
C227: x6+x13 <=1 
C228: x6+x14 <=1 
C229: x6+x15-y6_15 <=1 
C230: x6+x16 <=1 
C231: x6+x17-y6_17 <=1 
C232: x6+x18 <=1 
C233: x6+x19 <=1 
C234: x6+x22 <=1 
C235: x6+x24 <=1 
C236: x6+x25-y6_25 <=1 
C237: x6+x26 <=1 
C238: x6+x27 <=1 
C239: x6+x28 <=1 
C240: x6+x29 <=1 
C241: x6+x30 <=1 
C242: x6+x31-y6_31 <=1 
C243: x6+x33-y6_33 <=1 
C244: x6+x34-y6_34 <=1 
C245: x6+x35 <=1 
C246: x6+x36 <=1 
C247: x6+x37-y6_37 <=1 
C248: x6+x39-y6_39 <=1 
C249: x6+x40-y6_40 <=1 
C250: x6+x41-y6_41 <=1 
C251: x6+x43-y6_43 <=1 
C252: x6+x46 <=1 
C253: x6+x47-y6_47 <=1 
C254: x6+x50 <=1 
C255: x6+x52 <=1 
C256: x6+x53-y6_53 <=1 
C257: x6+x54-y6_54 <=1 
C258: x6+x55-y6_55 <=1 
C259: x6+x57 <=1 
C260: x6+x60-y6_60 <=1 
C261: x6+x61-y6_61 <=1 
C262: x6+x63 <=1 
C263: x7+x9-y7_9 <=1 
C264: x7+x10-y7_10 <=1 
C265: x7+x11-y7_11 <=1 
C266: x7+x12-y7_12 <=1 
C267: x7+x15 <=1 
C268: x7+x16-y7_16 <=1 
C269: x7+x17-y7_17 <=1 
C270: x7+x18 <=1 
C271: x7+x19-y7_19 <=1 
C272: x7+x20-y7_20 <=1 
C273: x7+x22 <=1 
C274: x7+x23 <=1 
C275: x7+x24-y7_24 <=1 
C276: x7+x25 <=1 
C277: x7+x26 <=1 
C278: x7+x31-y7_31 <=1 
C279: x7+x32-y7_32 <=1 
C280: x7+x33 <=1 
C281: x7+x34 <=1 
C282: x7+x35-y7_35 <=1 
C283: x7+x39-y7_39 <=1 
C284: x7+x40-y7_40 <=1 
C285: x7+x43 <=1 
C286: x7+x44 <=1 
C287: x7+x46-y7_46 <=1 
C288: x7+x48-y7_48 <=1 
C289: x7+x49 <=1 
C290: x7+x51-y7_51 <=1 
C291: x7+x53-y7_53 <=1 
C292: x7+x55 <=1 
C293: x7+x56-y7_56 <=1 
C294: x7+x57-y7_57 <=1 
C295: x7+x58-y7_58 <=1 
C296: x7+x59 <=1 
C297: x7+x60 <=1 
C298: x7+x62 <=1 
C299: x8+x9-y8_9 <=1 
C300: x8+x10 <=1 
C301: x8+x11 <=1 
C302: x8+x12 <=1 
C303: x8+x14 <=1 
C304: x8+x18-y8_18 <=1 
C305: x8+x21-y8_21 <=1 
C306: x8+x22-y8_22 <=1 
C307: x8+x23 <=1 
C308: x8+x24-y8_24 <=1 
C309: x8+x25 <=1 
C310: x8+x30 <=1 
C311: x8+x31 <=1 
C312: x8+x32-y8_32 <=1 
C313: x8+x33-y8_33 <=1 
C314: x8+x34-y8_34 <=1 
C315: x8+x35 <=1 
C316: x8+x36-y8_36 <=1 
C317: x8+x37-y8_37 <=1 
C318: x8+x38-y8_38 <=1 
C319: x8+x39-y8_39 <=1 
C320: x8+x42-y8_42 <=1 
C321: x8+x43-y8_43 <=1 
C322: x8+x44 <=1 
C323: x8+x45-y8_45 <=1 
C324: x8+x48-y8_48 <=1 
C325: x8+x49-y8_49 <=1 
C326: x8+x51-y8_51 <=1 
C327: x8+x52 <=1 
C328: x8+x53-y8_53 <=1 
C329: x8+x55-y8_55 <=1 
C330: x8+x56 <=1 
C331: x8+x58-y8_58 <=1 
C332: x8+x59-y8_59 <=1 
C333: x8+x61-y8_61 <=1 
C334: x8+x62 <=1 
C335: x9+x10-y9_10 <=1 
C336: x9+x12 <=1 
C337: x9+x13-y9_13 <=1 
C338: x9+x14 <=1 
C339: x9+x15-y9_15 <=1 
C340: x9+x17-y9_17 <=1 
C341: x9+x18-y9_18 <=1 
C342: x9+x19-y9_19 <=1 
C343: x9+x20 <=1 
C344: x9+x25 <=1 
C345: x9+x26-y9_26 <=1 
C346: x9+x28-y9_28 <=1 
C347: x9+x32-y9_32 <=1 
C348: x9+x34 <=1 
C349: x9+x35-y9_35 <=1 
C350: x9+x36 <=1 
C351: x9+x37 <=1 
C352: x9+x39-y9_39 <=1 
C353: x9+x42 <=1 
C354: x9+x43 <=1 
C355: x9+x44-y9_44 <=1 
C356: x9+x45-y9_45 <=1 
C357: x9+x46 <=1 
C358: x9+x47 <=1 
C359: x9+x48 <=1 
C360: x9+x49 <=1 
C361: x9+x51 <=1 
C362: x9+x52 <=1 
C363: x9+x53 <=1 
C364: x9+x55 <=1 
C365: x9+x56 <=1 
C366: x9+x57-y9_57 <=1 
C367: x9+x58-y9_58 <=1 
C368: x9+x59 <=1 
C369: x9+x61 <=1 
C370: x9+x62-y9_62 <=1 
C371: x9+x63-y9_63 <=1 
C372: x10+x12-y10_12 <=1 
C373: x10+x13 <=1 
C374: x10+x14 <=1 
C375: x10+x16-y10_16 <=1 
C376: x10+x17-y10_17 <=1 
C377: x10+x21-y10_21 <=1 
C378: x10+x22-y10_22 <=1 
C379: x10+x23 <=1 
C380: x10+x24 <=1 
C381: x10+x25-y10_25 <=1 
C382: x10+x26 <=1 
C383: x10+x27 <=1 
C384: x10+x28 <=1 
C385: x10+x29 <=1 
C386: x10+x30 <=1 
C387: x10+x32-y10_32 <=1 
C388: x10+x33-y10_33 <=1 
C389: x10+x36-y10_36 <=1 
C390: x10+x37-y10_37 <=1 
C391: x10+x38-y10_38 <=1 
C392: x10+x39-y10_39 <=1 
C393: x10+x40 <=1 
C394: x10+x43-y10_43 <=1 
C395: x10+x44-y10_44 <=1 
C396: x10+x46 <=1 
C397: x10+x57 <=1 
C398: x10+x58-y10_58 <=1 
C399: x10+x60 <=1 
C400: x11+x12 <=1 
C401: x11+x13 <=1 
C402: x11+x16 <=1 
C403: x11+x17-y11_17 <=1 
C404: x11+x18-y11_18 <=1 
C405: x11+x19 <=1 
C406: x11+x22 <=1 
C407: x11+x23 <=1 
C408: x11+x25 <=1 
C409: x11+x27-y11_27 <=1 
C410: x11+x30 <=1 
C411: x11+x33 <=1 
C412: x11+x34 <=1 
C413: x11+x36-y11_36 <=1 
C414: x11+x38-y11_38 <=1 
C415: x11+x39 <=1 
C416: x11+x41-y11_41 <=1 
C417: x11+x42 <=1 
C418: x11+x43 <=1 
C419: x11+x44 <=1 
C420: x11+x46-y11_46 <=1 
C421: x11+x47 <=1 
C422: x11+x48-y11_48 <=1 
C423: x11+x50 <=1 
C424: x11+x52 <=1 
C425: x11+x53-y11_53 <=1 
C426: x11+x55-y11_55 <=1 
C427: x11+x56-y11_56 <=1 
C428: x11+x57 <=1 
C429: x11+x59-y11_59 <=1 
C430: x11+x61 <=1 
C431: x11+x62-y11_62 <=1 
C432: x11+x63 <=1 
C433: x12+x14-y12_14 <=1 
C434: x12+x15 <=1 
C435: x12+x17 <=1 
C436: x12+x18 <=1 
C437: x12+x19 <=1 
C438: x12+x20-y12_20 <=1 
C439: x12+x23 <=1 
C440: x12+x24-y12_24 <=1 
C441: x12+x26 <=1 
C442: x12+x28 <=1 
C443: x12+x29-y12_29 <=1 
C444: x12+x31-y12_31 <=1 
C445: x12+x32 <=1 
C446: x12+x34-y12_34 <=1 
C447: x12+x35-y12_35 <=1 
C448: x12+x37-y12_37 <=1 
C449: x12+x38 <=1 
C450: x12+x39 <=1 
C451: x12+x40-y12_40 <=1 
C452: x12+x41 <=1 
C453: x12+x42-y12_42 <=1 
C454: x12+x45-y12_45 <=1 
C455: x12+x49-y12_49 <=1 
C456: x12+x50-y12_50 <=1 
C457: x12+x51 <=1 
C458: x12+x54-y12_54 <=1 
C459: x12+x55-y12_55 <=1 
C460: x12+x57 <=1 
C461: x12+x59 <=1 
C462: x12+x60-y12_60 <=1 
C463: x12+x62-y12_62 <=1 
C464: x12+x63 <=1 
C465: x13+x14 <=1 
C466: x13+x15-y13_15 <=1 
C467: x13+x16 <=1 
C468: x13+x18 <=1 
C469: x13+x22 <=1 
C470: x13+x23 <=1 
C471: x13+x30-y13_30 <=1 
C472: x13+x31-y13_31 <=1 
C473: x13+x32-y13_32 <=1 
C474: x13+x33 <=1 
C475: x13+x34 <=1 
C476: x13+x36 <=1 
C477: x13+x37-y13_37 <=1 
C478: x13+x39 <=1 
C479: x13+x40-y13_40 <=1 
C480: x13+x41-y13_41 <=1 
C481: x13+x43-y13_43 <=1 
C482: x13+x44 <=1 
C483: x13+x46 <=1 
C484: x13+x47-y13_47 <=1 
C485: x13+x49 <=1 
C486: x13+x50-y13_50 <=1 
C487: x13+x51 <=1 
C488: x13+x56 <=1 
C489: x13+x58-y13_58 <=1 
C490: x13+x60-y13_60 <=1 
C491: x13+x62 <=1 
C492: x13+x63 <=1 
C493: x14+x17 <=1 
C494: x14+x18 <=1 
C495: x14+x20-y14_20 <=1 
C496: x14+x22-y14_22 <=1 
C497: x14+x25 <=1 
C498: x14+x27 <=1 
C499: x14+x29 <=1 
C500: x14+x30-y14_30 <=1 
C501: x14+x32-y14_32 <=1 
C502: x14+x33 <=1 
C503: x14+x35 <=1 
C504: x14+x36-y14_36 <=1 
C505: x14+x37-y14_37 <=1 
C506: x14+x38-y14_38 <=1 
C507: x14+x39 <=1 
C508: x14+x40 <=1 
C509: x14+x44 <=1 
C510: x14+x45 <=1 
C511: x14+x51 <=1 
C512: x14+x52 <=1 
C513: x14+x54-y14_54 <=1 
C514: x14+x56 <=1 
C515: x14+x60 <=1 
C516: x14+x62-y14_62 <=1 
C517: x15+x16-y15_16 <=1 
C518: x15+x17 <=1 
C519: x15+x20 <=1 
C520: x15+x24 <=1 
C521: x15+x25-y15_25 <=1 
C522: x15+x26 <=1 
C523: x15+x28-y15_28 <=1 
C524: x15+x29 <=1 
C525: x15+x30 <=1 
C526: x15+x31 <=1 
C527: x15+x33 <=1 
C528: x15+x34 <=1 
C529: x15+x35-y15_35 <=1 
C530: x15+x36-y15_36 <=1 
C531: x15+x38 <=1 
C532: x15+x40 <=1 
C533: x15+x41 <=1 
C534: x15+x42-y15_42 <=1 
C535: x15+x44-y15_44 <=1 
C536: x15+x45-y15_45 <=1 
C537: x15+x47 <=1 
C538: x15+x49 <=1 
C539: x15+x51-y15_51 <=1 
C540: x15+x52 <=1 
C541: x15+x54-y15_54 <=1 
C542: x15+x57 <=1 
C543: x15+x58 <=1 
C544: x15+x61 <=1 
C545: x15+x62-y15_62 <=1 
C546: x16+x20 <=1 
C547: x16+x22 <=1 
C548: x16+x23-y16_23 <=1 
C549: x16+x24-y16_24 <=1 
C550: x16+x25-y16_25 <=1 
C551: x16+x26-y16_26 <=1 
C552: x16+x27 <=1 
C553: x16+x33 <=1 
C554: x16+x36 <=1 
C555: x16+x42-y16_42 <=1 
C556: x16+x43-y16_43 <=1 
C557: x16+x44-y16_44 <=1 
C558: x16+x45 <=1 
C559: x16+x46 <=1 
C560: x16+x47-y16_47 <=1 
C561: x16+x48 <=1 
C562: x16+x51 <=1 
C563: x16+x53-y16_53 <=1 
C564: x16+x54 <=1 
C565: x16+x55 <=1 
C566: x16+x56-y16_56 <=1 
C567: x16+x57-y16_57 <=1 
C568: x16+x58 <=1 
C569: x16+x59-y16_59 <=1 
C570: x16+x60 <=1 
C571: x16+x61-y16_61 <=1 
C572: x16+x62-y16_62 <=1 
C573: x16+x63-y16_63 <=1 
C574: x17+x19-y17_19 <=1 
C575: x17+x22-y17_22 <=1 
C576: x17+x25-y17_25 <=1 
C577: x17+x26-y17_26 <=1 
C578: x17+x27 <=1 
C579: x17+x29-y17_29 <=1 
C580: x17+x30-y17_30 <=1 
C581: x17+x31 <=1 
C582: x17+x32-y17_32 <=1 
C583: x17+x33 <=1 
C584: x17+x34 <=1 
C585: x17+x37-y17_37 <=1 
C586: x17+x40 <=1 
C587: x17+x41 <=1 
C588: x17+x42-y17_42 <=1 
C589: x17+x44 <=1 
C590: x17+x45-y17_45 <=1 
C591: x17+x46 <=1 
C592: x17+x48-y17_48 <=1 
C593: x17+x50 <=1 
C594: x17+x51-y17_51 <=1 
C595: x17+x52 <=1 
C596: x17+x53 <=1 
C597: x17+x55-y17_55 <=1 
C598: x17+x57 <=1 
C599: x17+x58-y17_58 <=1 
C600: x18+x19 <=1 
C601: x18+x20-y18_20 <=1 
C602: x18+x21-y18_21 <=1 
C603: x18+x22-y18_22 <=1 
C604: x18+x24-y18_24 <=1 
C605: x18+x25-y18_25 <=1 
C606: x18+x26-y18_26 <=1 
C607: x18+x27 <=1 
C608: x18+x28-y18_28 <=1 
C609: x18+x33 <=1 
C610: x18+x35 <=1 
C611: x18+x37 <=1 
C612: x18+x38-y18_38 <=1 
C613: x18+x39-y18_39 <=1 
C614: x18+x40-y18_40 <=1 
C615: x18+x41 <=1 
C616: x18+x44 <=1 
C617: x18+x45 <=1 
C618: x18+x47 <=1 
C619: x18+x52 <=1 
C620: x18+x53 <=1 
C621: x18+x54 <=1 
C622: x18+x55-y18_55 <=1 
C623: x18+x57 <=1 
C624: x18+x58 <=1 
C625: x18+x60 <=1 
C626: x18+x61 <=1 
C627: x18+x62 <=1 
C628: x18+x63-y18_63 <=1 
C629: x19+x20 <=1 
C630: x19+x23 <=1 
C631: x19+x25 <=1 
C632: x19+x26 <=1 
C633: x19+x27-y19_27 <=1 
C634: x19+x28-y19_28 <=1 
C635: x19+x29-y19_29 <=1 
C636: x19+x31-y19_31 <=1 
C637: x19+x35-y19_35 <=1 
C638: x19+x36-y19_36 <=1 
C639: x19+x37-y19_37 <=1 
C640: x19+x41-y19_41 <=1 
C641: x19+x44-y19_44 <=1 
C642: x19+x45-y19_45 <=1 
C643: x19+x46-y19_46 <=1 
C644: x19+x47-y19_47 <=1 
C645: x19+x49 <=1 
C646: x19+x50 <=1 
C647: x19+x51 <=1 
C648: x19+x54-y19_54 <=1 
C649: x19+x56-y19_56 <=1 
C650: x19+x58 <=1 
C651: x19+x59-y19_59 <=1 
C652: x19+x62 <=1 
C653: x19+x63 <=1 
C654: x20+x21-y20_21 <=1 
C655: x20+x23-y20_23 <=1 
C656: x20+x25-y20_25 <=1 
C657: x20+x26-y20_26 <=1 
C658: x20+x29-y20_29 <=1 
C659: x20+x30-y20_30 <=1 
C660: x20+x32-y20_32 <=1 
C661: x20+x33 <=1 
C662: x20+x36 <=1 
C663: x20+x37 <=1 
C664: x20+x38-y20_38 <=1 
C665: x20+x39-y20_39 <=1 
C666: x20+x40 <=1 
C667: x20+x41-y20_41 <=1 
C668: x20+x44 <=1 
C669: x20+x46 <=1 
C670: x20+x47 <=1 
C671: x20+x48 <=1 
C672: x20+x49-y20_49 <=1 
C673: x20+x51 <=1 
C674: x20+x52-y20_52 <=1 
C675: x20+x53 <=1 
C676: x20+x54 <=1 
C677: x20+x55 <=1 
C678: x20+x56 <=1 
C679: x20+x57 <=1 
C680: x20+x58 <=1 
C681: x20+x59 <=1 
C682: x20+x61-y20_61 <=1 
C683: x20+x62-y20_62 <=1 
C684: x20+x63 <=1 
C685: x21+x22 <=1 
C686: x21+x23-y21_23 <=1 
C687: x21+x24-y21_24 <=1 
C688: x21+x26-y21_26 <=1 
C689: x21+x27-y21_27 <=1 
C690: x21+x28 <=1 
C691: x21+x29 <=1 
C692: x21+x30-y21_30 <=1 
C693: x21+x31-y21_31 <=1 
C694: x21+x32 <=1 
C695: x21+x34 <=1 
C696: x21+x35-y21_35 <=1 
C697: x21+x36 <=1 
C698: x21+x39 <=1 
C699: x21+x40 <=1 
C700: x21+x41 <=1 
C701: x21+x42-y21_42 <=1 
C702: x21+x43-y21_43 <=1 
C703: x21+x46 <=1 
C704: x21+x47 <=1 
C705: x21+x48 <=1 
C706: x21+x50-y21_50 <=1 
C707: x21+x51 <=1 
C708: x21+x53-y21_53 <=1 
C709: x21+x55-y21_55 <=1 
C710: x21+x58-y21_58 <=1 
C711: x21+x59 <=1 
C712: x21+x60-y21_60 <=1 
C713: x21+x61 <=1 
C714: x22+x23 <=1 
C715: x22+x24 <=1 
C716: x22+x25-y22_25 <=1 
C717: x22+x26 <=1 
C718: x22+x27 <=1 
C719: x22+x28 <=1 
C720: x22+x29 <=1 
C721: x22+x30-y22_30 <=1 
C722: x22+x32-y22_32 <=1 
C723: x22+x33 <=1 
C724: x22+x35-y22_35 <=1 
C725: x22+x36 <=1 
C726: x22+x37 <=1 
C727: x22+x39 <=1 
C728: x22+x43 <=1 
C729: x22+x44-y22_44 <=1 
C730: x22+x45 <=1 
C731: x22+x46 <=1 
C732: x22+x48 <=1 
C733: x22+x49 <=1 
C734: x22+x51 <=1 
C735: x22+x52-y22_52 <=1 
C736: x22+x53 <=1 
C737: x22+x56 <=1 
C738: x22+x60-y22_60 <=1 
C739: x22+x61 <=1 
C740: x23+x25-y23_25 <=1 
C741: x23+x26 <=1 
C742: x23+x27 <=1 
C743: x23+x30 <=1 
C744: x23+x33-y23_33 <=1 
C745: x23+x34 <=1 
C746: x23+x37-y23_37 <=1 
C747: x23+x40 <=1 
C748: x23+x41-y23_41 <=1 
C749: x23+x42-y23_42 <=1 
C750: x23+x43-y23_43 <=1 
C751: x23+x45-y23_45 <=1 
C752: x23+x46-y23_46 <=1 
C753: x23+x48-y23_48 <=1 
C754: x23+x49 <=1 
C755: x23+x50-y23_50 <=1 
C756: x23+x52-y23_52 <=1 
C757: x23+x53-y23_53 <=1 
C758: x23+x54 <=1 
C759: x23+x55-y23_55 <=1 
C760: x23+x56 <=1 
C761: x23+x58-y23_58 <=1 
C762: x23+x59-y23_59 <=1 
C763: x23+x60 <=1 
C764: x23+x61 <=1 
C765: x23+x62 <=1 
C766: x23+x63 <=1 
C767: x24+x27 <=1 
C768: x24+x28 <=1 
C769: x24+x29 <=1 
C770: x24+x31-y24_31 <=1 
C771: x24+x32-y24_32 <=1 
C772: x24+x33 <=1 
C773: x24+x37 <=1 
C774: x24+x38-y24_38 <=1 
C775: x24+x39-y24_39 <=1 
C776: x24+x40-y24_40 <=1 
C777: x24+x41 <=1 
C778: x24+x43-y24_43 <=1 
C779: x24+x44-y24_44 <=1 
C780: x24+x47 <=1 
C781: x24+x49-y24_49 <=1 
C782: x24+x50 <=1 
C783: x24+x52 <=1 
C784: x24+x53-y24_53 <=1 
C785: x24+x54 <=1 
C786: x24+x57-y24_57 <=1 
C787: x24+x61-y24_61 <=1 
C788: x24+x62 <=1 
C789: x25+x26 <=1 
C790: x25+x27-y25_27 <=1 
C791: x25+x29 <=1 
C792: x25+x30 <=1 
C793: x25+x31-y25_31 <=1 
C794: x25+x32-y25_32 <=1 
C795: x25+x33-y25_33 <=1 
C796: x25+x34-y25_34 <=1 
C797: x25+x35-y25_35 <=1 
C798: x25+x36 <=1 
C799: x25+x39 <=1 
C800: x25+x40 <=1 
C801: x25+x41-y25_41 <=1 
C802: x25+x42-y25_42 <=1 
C803: x25+x43-y25_43 <=1 
C804: x25+x45-y25_45 <=1 
C805: x25+x46 <=1 
C806: x25+x47-y25_47 <=1 
C807: x25+x49 <=1 
C808: x25+x52-y25_52 <=1 
C809: x25+x53-y25_53 <=1 
C810: x25+x54-y25_54 <=1 
C811: x25+x55 <=1 
C812: x25+x56-y25_56 <=1 
C813: x25+x59 <=1 
C814: x25+x60-y25_60 <=1 
C815: x25+x61 <=1 
C816: x25+x62-y25_62 <=1 
C817: x25+x63-y25_63 <=1 
C818: x26+x31 <=1 
C819: x26+x32 <=1 
C820: x26+x33-y26_33 <=1 
C821: x26+x34 <=1 
C822: x26+x36 <=1 
C823: x26+x37 <=1 
C824: x26+x40 <=1 
C825: x26+x41 <=1 
C826: x26+x43 <=1 
C827: x26+x45 <=1 
C828: x26+x46 <=1 
C829: x26+x47-y26_47 <=1 
C830: x26+x50-y26_50 <=1 
C831: x26+x51-y26_51 <=1 
C832: x26+x52 <=1 
C833: x26+x54-y26_54 <=1 
C834: x26+x57-y26_57 <=1 
C835: x26+x59-y26_59 <=1 
C836: x26+x60-y26_60 <=1 
C837: x26+x61-y26_61 <=1 
C838: x27+x28 <=1 
C839: x27+x30-y27_30 <=1 
C840: x27+x32-y27_32 <=1 
C841: x27+x34-y27_34 <=1 
C842: x27+x35-y27_35 <=1 
C843: x27+x37-y27_37 <=1 
C844: x27+x38 <=1 
C845: x27+x39-y27_39 <=1 
C846: x27+x42-y27_42 <=1 
C847: x27+x43 <=1 
C848: x27+x46-y27_46 <=1 
C849: x27+x47 <=1 
C850: x27+x50-y27_50 <=1 
C851: x27+x51 <=1 
C852: x27+x55 <=1 
C853: x27+x57 <=1 
C854: x27+x59 <=1 
C855: x27+x61 <=1 
C856: x27+x62-y27_62 <=1 
C857: x27+x63 <=1 
C858: x28+x30-y28_30 <=1 
C859: x28+x31 <=1 
C860: x28+x32 <=1 
C861: x28+x35-y28_35 <=1 
C862: x28+x37-y28_37 <=1 
C863: x28+x40-y28_40 <=1 
C864: x28+x41 <=1 
C865: x28+x43 <=1 
C866: x28+x44 <=1 
C867: x28+x45 <=1 
C868: x28+x46-y28_46 <=1 
C869: x28+x49 <=1 
C870: x28+x51 <=1 
C871: x28+x53-y28_53 <=1 
C872: x28+x56 <=1 
C873: x28+x57 <=1 
C874: x28+x59 <=1 
C875: x28+x61 <=1 
C876: x29+x31-y29_31 <=1 
C877: x29+x33 <=1 
C878: x29+x36-y29_36 <=1 
C879: x29+x38-y29_38 <=1 
C880: x29+x39-y29_39 <=1 
C881: x29+x40-y29_40 <=1 
C882: x29+x41 <=1 
C883: x29+x42-y29_42 <=1 
C884: x29+x45-y29_45 <=1 
C885: x29+x46 <=1 
C886: x29+x47-y29_47 <=1 
C887: x29+x48-y29_48 <=1 
C888: x29+x52-y29_52 <=1 
C889: x29+x53 <=1 
C890: x29+x54-y29_54 <=1 
C891: x29+x55-y29_55 <=1 
C892: x29+x57 <=1 
C893: x29+x61 <=1 
C894: x29+x62-y29_62 <=1 
C895: x29+x63-y29_63 <=1 
C896: x30+x33-y30_33 <=1 
C897: x30+x35 <=1 
C898: x30+x37-y30_37 <=1 
C899: x30+x38 <=1 
C900: x30+x40-y30_40 <=1 
C901: x30+x42 <=1 
C902: x30+x44-y30_44 <=1 
C903: x30+x45-y30_45 <=1 
C904: x30+x46 <=1 
C905: x30+x47-y30_47 <=1 
C906: x30+x48-y30_48 <=1 
C907: x30+x50-y30_50 <=1 
C908: x30+x52-y30_52 <=1 
C909: x30+x54 <=1 
C910: x30+x55 <=1 
C911: x30+x57 <=1 
C912: x30+x59-y30_59 <=1 
C913: x30+x62 <=1 
C914: x30+x63-y30_63 <=1 
C915: x31+x32 <=1 
C916: x31+x33 <=1 
C917: x31+x34-y31_34 <=1 
C918: x31+x37-y31_37 <=1 
C919: x31+x38 <=1 
C920: x31+x39 <=1 
C921: x31+x40-y31_40 <=1 
C922: x31+x41 <=1 
C923: x31+x43 <=1 
C924: x31+x46 <=1 
C925: x31+x47-y31_47 <=1 
C926: x31+x48 <=1 
C927: x31+x52-y31_52 <=1 
C928: x31+x53-y31_53 <=1 
C929: x31+x54-y31_54 <=1 
C930: x31+x56 <=1 
C931: x31+x58-y31_58 <=1 
C932: x31+x59-y31_59 <=1 
C933: x31+x60 <=1 
C934: x31+x61-y31_61 <=1 
C935: x32+x33 <=1 
C936: x32+x35-y32_35 <=1 
C937: x32+x38-y32_38 <=1 
C938: x32+x40-y32_40 <=1 
C939: x32+x42 <=1 
C940: x32+x44-y32_44 <=1 
C941: x32+x45-y32_45 <=1 
C942: x32+x50-y32_50 <=1 
C943: x32+x51 <=1 
C944: x32+x54 <=1 
C945: x32+x56-y32_56 <=1 
C946: x32+x57-y32_57 <=1 
C947: x32+x59 <=1 
C948: x32+x60 <=1 
C949: x32+x61-y32_61 <=1 
C950: x32+x62 <=1 
C951: x32+x63-y32_63 <=1 
C952: x33+x34-y33_34 <=1 
C953: x33+x35-y33_35 <=1 
C954: x33+x36-y33_36 <=1 
C955: x33+x38 <=1 
C956: x33+x39 <=1 
C957: x33+x41-y33_41 <=1 
C958: x33+x42-y33_42 <=1 
C959: x33+x43 <=1 
C960: x33+x44-y33_44 <=1 
C961: x33+x48 <=1 
C962: x33+x51-y33_51 <=1 
C963: x33+x52-y33_52 <=1 
C964: x33+x53-y33_53 <=1 
C965: x33+x54-y33_54 <=1 
C966: x33+x55 <=1 
C967: x33+x56 <=1 
C968: x33+x57-y33_57 <=1 
C969: x33+x58 <=1 
C970: x33+x60-y33_60 <=1 
C971: x33+x61-y33_61 <=1 
C972: x33+x63 <=1 
C973: x34+x35-y34_35 <=1 
C974: x34+x36-y34_36 <=1 
C975: x34+x39-y34_39 <=1 
C976: x34+x40 <=1 
C977: x34+x41 <=1 
C978: x34+x43-y34_43 <=1 
C979: x34+x44-y34_44 <=1 
C980: x34+x45-y34_45 <=1 
C981: x34+x46 <=1 
C982: x34+x47 <=1 
C983: x34+x48-y34_48 <=1 
C984: x34+x49-y34_49 <=1 
C985: x34+x50 <=1 
C986: x34+x53-y34_53 <=1 
C987: x34+x54 <=1 
C988: x34+x55-y34_55 <=1 
C989: x34+x58-y34_58 <=1 
C990: x34+x59-y34_59 <=1 
C991: x34+x61 <=1 
C992: x34+x62-y34_62 <=1 
C993: x34+x63 <=1 
C994: x35+x36-y35_36 <=1 
C995: x35+x38 <=1 
C996: x35+x39 <=1 
C997: x35+x40-y35_40 <=1 
C998: x35+x41-y35_41 <=1 
C999: x35+x42-y35_42 <=1 
C1000: x35+x43-y35_43 <=1 
C1001: x35+x44 <=1 
C1002: x35+x45-y35_45 <=1 
C1003: x35+x47 <=1 
C1004: x35+x48-y35_48 <=1 
C1005: x35+x49-y35_49 <=1 
C1006: x35+x50-y35_50 <=1 
C1007: x35+x54 <=1 
C1008: x35+x55 <=1 
C1009: x35+x56-y35_56 <=1 
C1010: x35+x59-y35_59 <=1 
C1011: x35+x62-y35_62 <=1 
C1012: x35+x63-y35_63 <=1 
C1013: x36+x37 <=1 
C1014: x36+x38 <=1 
C1015: x36+x40 <=1 
C1016: x36+x41-y36_41 <=1 
C1017: x36+x43-y36_43 <=1 
C1018: x36+x44-y36_44 <=1 
C1019: x36+x46-y36_46 <=1 
C1020: x36+x47-y36_47 <=1 
C1021: x36+x50-y36_50 <=1 
C1022: x36+x52-y36_52 <=1 
C1023: x36+x53 <=1 
C1024: x36+x54 <=1 
C1025: x36+x57 <=1 
C1026: x36+x59-y36_59 <=1 
C1027: x36+x60-y36_60 <=1 
C1028: x36+x61 <=1 
C1029: x36+x63-y36_63 <=1 
C1030: x37+x38 <=1 
C1031: x37+x39 <=1 
C1032: x37+x40 <=1 
C1033: x37+x42-y37_42 <=1 
C1034: x37+x43 <=1 
C1035: x37+x45 <=1 
C1036: x37+x47-y37_47 <=1 
C1037: x37+x48-y37_48 <=1 
C1038: x37+x49-y37_49 <=1 
C1039: x37+x50-y37_50 <=1 
C1040: x37+x51-y37_51 <=1 
C1041: x37+x52 <=1 
C1042: x37+x53-y37_53 <=1 
C1043: x37+x54-y37_54 <=1 
C1044: x37+x55-y37_55 <=1 
C1045: x37+x56-y37_56 <=1 
C1046: x37+x58 <=1 
C1047: x37+x59-y37_59 <=1 
C1048: x37+x60 <=1 
C1049: x37+x61-y37_61 <=1 
C1050: x38+x40-y38_40 <=1 
C1051: x38+x42-y38_42 <=1 
C1052: x38+x45 <=1 
C1053: x38+x46-y38_46 <=1 
C1054: x38+x48-y38_48 <=1 
C1055: x38+x50 <=1 
C1056: x38+x53-y38_53 <=1 
C1057: x38+x54 <=1 
C1058: x38+x55 <=1 
C1059: x38+x60 <=1 
C1060: x39+x42-y39_42 <=1 
C1061: x39+x44-y39_44 <=1 
C1062: x39+x45-y39_45 <=1 
C1063: x39+x49 <=1 
C1064: x39+x51 <=1 
C1065: x39+x52-y39_52 <=1 
C1066: x39+x53 <=1 
C1067: x39+x54 <=1 
C1068: x39+x55 <=1 
C1069: x39+x56 <=1 
C1070: x39+x58 <=1 
C1071: x39+x59 <=1 
C1072: x39+x61-y39_61 <=1 
C1073: x39+x62-y39_62 <=1 
C1074: x40+x42-y40_42 <=1 
C1075: x40+x43 <=1 
C1076: x40+x44 <=1 
C1077: x40+x46-y40_46 <=1 
C1078: x40+x48-y40_48 <=1 
C1079: x40+x49-y40_49 <=1 
C1080: x40+x50 <=1 
C1081: x40+x51 <=1 
C1082: x40+x58 <=1 
C1083: x40+x59 <=1 
C1084: x40+x61 <=1 
C1085: x40+x63-y40_63 <=1 
C1086: x41+x42 <=1 
C1087: x41+x44-y41_44 <=1 
C1088: x41+x47 <=1 
C1089: x41+x49 <=1 
C1090: x41+x52-y41_52 <=1 
C1091: x41+x53 <=1 
C1092: x41+x54-y41_54 <=1 
C1093: x41+x55 <=1 
C1094: x41+x56 <=1 
C1095: x41+x57 <=1 
C1096: x41+x58 <=1 
C1097: x41+x59-y41_59 <=1 
C1098: x41+x63-y41_63 <=1 
C1099: x42+x43 <=1 
C1100: x42+x45 <=1 
C1101: x42+x47-y42_47 <=1 
C1102: x42+x48 <=1 
C1103: x42+x49-y42_49 <=1 
C1104: x42+x50-y42_50 <=1 
C1105: x42+x51 <=1 
C1106: x42+x52-y42_52 <=1 
C1107: x42+x54 <=1 
C1108: x42+x56 <=1 
C1109: x42+x57 <=1 
C1110: x42+x59-y42_59 <=1 
C1111: x42+x61 <=1 
C1112: x42+x62 <=1 
C1113: x43+x44 <=1 
C1114: x43+x45-y43_45 <=1 
C1115: x43+x47-y43_47 <=1 
C1116: x43+x48-y43_48 <=1 
C1117: x43+x50 <=1 
C1118: x43+x52 <=1 
C1119: x43+x53 <=1 
C1120: x43+x54 <=1 
C1121: x43+x55 <=1 
C1122: x43+x56 <=1 
C1123: x43+x57 <=1 
C1124: x43+x58-y43_58 <=1 
C1125: x43+x59-y43_59 <=1 
C1126: x43+x60-y43_60 <=1 
C1127: x43+x61 <=1 
C1128: x43+x62 <=1 
C1129: x43+x63 <=1 
C1130: x44+x47 <=1 
C1131: x44+x48 <=1 
C1132: x44+x50-y44_50 <=1 
C1133: x44+x51-y44_51 <=1 
C1134: x44+x52 <=1 
C1135: x44+x53 <=1 
C1136: x44+x54-y44_54 <=1 
C1137: x44+x58-y44_58 <=1 
C1138: x44+x59 <=1 
C1139: x44+x61-y44_61 <=1 
C1140: x44+x62 <=1 
C1141: x45+x46-y45_46 <=1 
C1142: x45+x52-y45_52 <=1 
C1143: x45+x53 <=1 
C1144: x45+x55-y45_55 <=1 
C1145: x45+x56-y45_56 <=1 
C1146: x45+x58 <=1 
C1147: x45+x59 <=1 
C1148: x45+x61-y45_61 <=1 
C1149: x46+x48-y46_48 <=1 
C1150: x46+x49-y46_49 <=1 
C1151: x46+x50 <=1 
C1152: x46+x55-y46_55 <=1 
C1153: x46+x56 <=1 
C1154: x46+x57-y46_57 <=1 
C1155: x46+x58-y46_58 <=1 
C1156: x46+x59 <=1 
C1157: x46+x61 <=1 
C1158: x46+x62-y46_62 <=1 
C1159: x47+x48-y47_48 <=1 
C1160: x47+x51-y47_51 <=1 
C1161: x47+x53-y47_53 <=1 
C1162: x47+x54-y47_54 <=1 
C1163: x47+x55 <=1 
C1164: x47+x56-y47_56 <=1 
C1165: x47+x57 <=1 
C1166: x47+x58-y47_58 <=1 
C1167: x47+x59-y47_59 <=1 
C1168: x47+x63 <=1 
C1169: x48+x49 <=1 
C1170: x48+x50 <=1 
C1171: x48+x53-y48_53 <=1 
C1172: x48+x54-y48_54 <=1 
C1173: x48+x57 <=1 
C1174: x48+x58-y48_58 <=1 
C1175: x48+x60-y48_60 <=1 
C1176: x48+x63 <=1 
C1177: x49+x53-y49_53 <=1 
C1178: x49+x54 <=1 
C1179: x49+x55 <=1 
C1180: x49+x56-y49_56 <=1 
C1181: x49+x57 <=1 
C1182: x49+x59 <=1 
C1183: x49+x60 <=1 
C1184: x49+x63-y49_63 <=1 
C1185: x50+x51-y50_51 <=1 
C1186: x50+x53-y50_53 <=1 
C1187: x50+x56-y50_56 <=1 
C1188: x50+x58 <=1 
C1189: x50+x59 <=1 
C1190: x50+x60 <=1 
C1191: x50+x61-y50_61 <=1 
C1192: x50+x63-y50_63 <=1 
C1193: x51+x53 <=1 
C1194: x51+x56-y51_56 <=1 
C1195: x51+x57 <=1 
C1196: x51+x58 <=1 
C1197: x51+x59-y51_59 <=1 
C1198: x51+x62-y51_62 <=1 
C1199: x51+x63 <=1 
C1200: x52+x53-y52_53 <=1 
C1201: x52+x54-y52_54 <=1 
C1202: x52+x55 <=1 
C1203: x52+x56 <=1 
C1204: x52+x57 <=1 
C1205: x52+x58-y52_58 <=1 
C1206: x53+x55 <=1 
C1207: x53+x56 <=1 
C1208: x53+x57-y53_57 <=1 
C1209: x53+x58-y53_58 <=1 
C1210: x53+x59-y53_59 <=1 
C1211: x53+x60 <=1 
C1212: x53+x61 <=1 
C1213: x54+x56-y54_56 <=1 
C1214: x54+x57-y54_57 <=1 
C1215: x54+x58-y54_58 <=1 
C1216: x54+x59-y54_59 <=1 
C1217: x54+x60-y54_60 <=1 
C1218: x54+x61 <=1 
C1219: x54+x62 <=1 
C1220: x54+x63 <=1 
C1221: x55+x56 <=1 
C1222: x55+x58 <=1 
C1223: x55+x59 <=1 
C1224: x55+x60 <=1 
C1225: x55+x61 <=1 
C1226: x56+x58-y56_58 <=1 
C1227: x56+x59-y56_59 <=1 
C1228: x56+x60 <=1 
C1229: x56+x63-y56_63 <=1 
C1230: x57+x59-y57_59 <=1 
C1231: x57+x61-y57_61 <=1 
C1232: x57+x63-y57_63 <=1 
C1233: x58+x59-y58_59 <=1 
C1234: x58+x61-y58_61 <=1 
C1235: x59+x61-y59_61 <=1 
C1236: x59+x62 <=1 
C1237: x59+x63-y59_63 <=1 
C1238: x60+x62 <=1 
C1239: x60+x63 <=1 
C1240: x61+x62 <=1 
C1241: x62+x63 <=1 

binary
x0
x1
x2
x3
x4
x5
x6
x7
x8
x9
x10
x11
x12
x13
x14
x15
x16
x17
x18
x19
x20
x21
x22
x23
x24
x25
x26
x27
x28
x29
x30
x31
x32
x33
x34
x35
x36
x37
x38
x39
x40
x41
x42
x43
x44
x45
x46
x47
x48
x49
x50
x51
x52
x53
x54
x55
x56
x57
x58
x59
x60
x61
x62
x63
