problem_generation/data/GISP/train/er_n=64_m=1241_p=0.60_SET2_setparam=100.00_alpha=0.50_464.sol
objective value:                                 1166
x1                                                  1 	(obj:100)
x7                                                  1 	(obj:100)
x8                                                  1 	(obj:100)
x9                                                  1 	(obj:100)
x16                                                 1 	(obj:100)
x19                                                 1 	(obj:100)
x24                                                 1 	(obj:100)
x32                                                 1 	(obj:100)
x38                                                 1 	(obj:100)
x39                                                 1 	(obj:100)
x40                                                 1 	(obj:100)
x57                                                 1 	(obj:100)
y8_9                                                1 	(obj:-1)
y7_16                                               1 	(obj:-1)
y9_39                                               1 	(obj:-1)
y9_57                                               1 	(obj:-1)
y24_32                                              1 	(obj:-1)
y1_57                                               1 	(obj:-1)
y32_40                                              1 	(obj:-1)
y24_40                                              1 	(obj:-1)
y9_19                                               1 	(obj:-1)
y8_32                                               1 	(obj:-1)
y1_19                                               1 	(obj:-1)
y7_39                                               1 	(obj:-1)
y7_57                                               1 	(obj:-1)
y1_9                                                1 	(obj:-1)
y38_40                                              1 	(obj:-1)
y7_24                                               1 	(obj:-1)
y7_19                                               1 	(obj:-1)
y32_57                                              1 	(obj:-1)
y7_9                                                1 	(obj:-1)
y24_39                                              1 	(obj:-1)
y24_57                                              1 	(obj:-1)
y9_32                                               1 	(obj:-1)
y32_38                                              1 	(obj:-1)
y16_57                                              1 	(obj:-1)
y24_38                                              1 	(obj:-1)
y1_40                                               1 	(obj:-1)
y8_39                                               1 	(obj:-1)
y16_24                                              1 	(obj:-1)
y1_39                                               1 	(obj:-1)
y8_38                                               1 	(obj:-1)
y1_7                                                1 	(obj:-1)
y7_32                                               1 	(obj:-1)
y8_24                                               1 	(obj:-1)
y7_40                                               1 	(obj:-1)
